(declare-const X String)
; /^GET \/\w+\/\d{5}\/[a-z]{4}\.php\?[a-z]{3}\x5Fid=[A-Za-z0-9+\/]{43}= HTTP\//
(assert (str.in.re X (re.++ (str.to.re "/GET /") (re.+ (re.union (re.range "0" "9") (re.range "A" "Z") (re.range "a" "z") (str.to.re "_"))) (str.to.re "/") ((_ re.loop 5 5) (re.range "0" "9")) (str.to.re "/") ((_ re.loop 4 4) (re.range "a" "z")) (str.to.re ".php?") ((_ re.loop 3 3) (re.range "a" "z")) (str.to.re "_id=") ((_ re.loop 43 43) (re.union (re.range "A" "Z") (re.range "a" "z") (re.range "0" "9") (str.to.re "+") (str.to.re "/"))) (str.to.re "= HTTP//\x0a"))))
; ^[ \w]{3,}([A-Za-z]\.)?([ \w]*\#\d+)?(\r\n| )[ \w]{3,},\x20[A-Za-z]{2}\x20\d{5}(-\d{4})?$
(assert (not (str.in.re X (re.++ (re.opt (re.++ (re.union (re.range "A" "Z") (re.range "a" "z")) (str.to.re "."))) (re.opt (re.++ (re.* (re.union (str.to.re " ") (re.range "0" "9") (re.range "A" "Z") (re.range "a" "z") (str.to.re "_"))) (str.to.re "#") (re.+ (re.range "0" "9")))) (re.union (str.to.re "\x0d\x0a") (str.to.re " ")) (str.to.re ", ") ((_ re.loop 2 2) (re.union (re.range "A" "Z") (re.range "a" "z"))) (str.to.re " ") ((_ re.loop 5 5) (re.range "0" "9")) (re.opt (re.++ (str.to.re "-") ((_ re.loop 4 4) (re.range "0" "9")))) (str.to.re "\x0a") ((_ re.loop 3 3) (re.union (str.to.re " ") (re.range "0" "9") (re.range "A" "Z") (re.range "a" "z") (str.to.re "_"))) (re.* (re.union (str.to.re " ") (re.range "0" "9") (re.range "A" "Z") (re.range "a" "z") (str.to.re "_"))) ((_ re.loop 3 3) (re.union (str.to.re " ") (re.range "0" "9") (re.range "A" "Z") (re.range "a" "z") (str.to.re "_"))) (re.* (re.union (str.to.re " ") (re.range "0" "9") (re.range "A" "Z") (re.range "a" "z") (str.to.re "_")))))))
; /nsrmm[^\x00]*?([\x3b\x7c\x26\x60]|\x24\x28)/
(assert (not (str.in.re X (re.++ (str.to.re "/nsrmm") (re.* (re.comp (str.to.re "\x00"))) (re.union (str.to.re "$(") (str.to.re ";") (str.to.re "|") (str.to.re "&") (str.to.re "`")) (str.to.re "/\x0a")))))
(check-sat)
